2967.26 0
0 22 14 115 74 75 73 18 123 19 0
0 120 101 95 10 2 8 6 150 7 13 0
0 148 55 57 62 56 43 38 47 48 42 45 49 0
0 23 121 100 90 96 106 103 98 94 88 91 104 89 93 134 0
0 126 135 132 138 105 97 99 133 131 122 0
0 140 113 109 112 108 111 114 117 110 118 116 70 145 139 0
0 80 76 79 78 77 69 71 72 142 0
0 16 124 128 136 4 3 5 1 9 86 84 87 82 81 85 83 0
0 68 58 67 32 46 37 34 36 31 33 40 39 41 28 30 44 29 60 50 0
0 52 53 59 54 35 63 51 61 0
0 137 102 107 92 129 17 0
0 27 21 119 15 130 127 125 143 141 0
0 147 65 66 64 149 146 0
0 25 144 24 20 26 11 12 0
